problem_generation/data/GISP/train/er_n=68_m=1360_p=0.60_SET2_setparam=100.00_alpha=0.50_333.lp
maximize
OBJ:100x0 + 100x1 + 100x2 + 100x3 + 100x4 + 100x5 + 100x6 + 100x7 + 100x8 + 100x9 + 100x10 + 100x11 + 100x12 + 100x13 + 100x14 + 100x15 + 100x16 + 100x17 + 100x18 + 100x19 + 100x20 + 100x21 + 100x22 + 100x23 + 100x24 + 100x25 + 100x26 + 100x27 + 100x28 + 100x29 + 100x30 + 100x31 + 100x32 + 100x33 + 100x34 + 100x35 + 100x36 + 100x37 + 100x38 + 100x39 + 100x40 + 100x41 + 100x42 + 100x43 + 100x44 + 100x45 + 100x46 + 100x47 + 100x48 + 100x49 + 100x50 + 100x51 + 100x52 + 100x53 + 100x54 + 100x55 + 100x56 + 100x57 + 100x58 + 100x59 + 100x60 + 100x61 + 100x62 + 100x63 + 100x64 + 100x65 + 100x66 + 100x67 - y15_21 - y47_53 - y47_62 - y28_58 - y18_35 - y29_32 - y18_44 - y9_63 - y0_5 - y48_54 - y21_37 - y0_14 - y11_14 - y48_63 - y29_59 - y10_27 - y33_38 - y41_51 - y33_47 - y10_54 - y25_52 - y51_64 - y7_12 - y7_21 - y17_62 - y28_62 - y9_58 - y6_34 - y9_67 - y0_9 - y6_43 - y29_45 - y40_54 - y40_63 - y2_45 - y3_10 - y13_51 - y3_28 - y14_28 - y24_60 - y16_56 - y16_65 - y59_63 - y9_53 - y9_62 - y6_38 - y21_36 - y10_17 - y6_65 - y2_22 - y10_35 - y2_31 - y12_63 - y2_40 - y3_5 - y35_46 - y24_55 - y14_32 - y1_62 - y24_64 - y35_64 - y17_34 - y55_60 - y36_56 - y17_52 - y6_15 - y36_65 - y9_57 - y9_66 - y21_31 - y61_67 - y6_42 - y29_44 - y6_51 - y10_12 - y39_57 - y10_30 - y24_32 - y13_41 - y24_41 - y14_18 - y16_37 - y35_41 - y13_50 - y13_59 - y28_29 - y9_25 - y28_38 - y9_34 - y17_47 - y6_10 - y5_54 - y9_52 - y58_66 - y61_62 - y42_58 - y21_35 - y19_65 - y42_67 - y39_43 - y10_16 - y2_12 - y31_48 - y10_25 - y20_57 - y31_57 - y4_49 - y23_62 - y51_53 - y1_34 - y24_36 - y16_32 - y43_58 - y24_54 - y35_54 - y13_63 - y5_22 - y57_60 - y5_40 - y17_42 - y58_61 - y27_55 - y42_53 - y27_64 - y8_60 - y23_39 - y31_61 - y23_57 - y13_22 - y1_29 - y4_62 - y43_44 - y1_38 - y24_40 - y35_40 - y16_36 - y1_47 - y1_56 - y35_58 - y16_54 - y17_19 - y38_51 - y5_26 - y38_60 - y27_41 - y50_52 - y8_46 - y42_48 - y42_57 - y0_51 - y11_51 - y19_64 - y12_25 - y20_38 - y31_38 - y12_34 - y4_30 - y12_43 - y20_56 - y4_39 - y31_56 - y12_52 - y13_17 - y31_65 - y4_48 - y1_33 - y24_35 - y16_31 - y34_67 - y1_42 - y37_63 - y1_51 - y5_12 - y5_21 - y26_53 - y5_30 - y15_62 - y26_62 - y18_58 - y27_36 - y7_67 - y8_32 - y18_67 - y19_32 - y27_54 - y42_52 - y8_59 - y30_59 - y12_20 - y11_64 - y39_46 - y31_42 - y20_51 - y4_34 - y12_47 - y4_43 - y12_56 - y53_57 - y34_53 - y1_28 - y53_66 - y4_61 - y64_66 - y16_35 - y3_65 - y5_16 - y65_67 - y49_50 - y57_63 - y26_57 - y38_59 - y49_59 - y7_53 - y27_31 - y30_36 - y50_51 - y0_41 - y8_54 - y30_54 - y42_56 - y11_50 - y12_15 - y60_64 - y39_41 - y41_60 - y12_33 - y4_29 - y33_65 - y44_65 - y34_39 - y4_47 - y45_48 - y1_23 - y53_61 - y46_58 - y57_58 - y26_61 - y7_57 - y8_22 - y19_22 - y11_18 - y48_67 - y27_44 - y0_36 - y11_45 - y41_55 - y52_55 - y20_32 - y4_15 - y12_28 - y4_33 - y2_63 - y25_65 - y22_41 - y53_56 - y22_50 - y45_52 - y64_65 - y3_55 - y14_55 - y5_6 - y18_25 - y7_34 - y15_47 - y0_4 - y18_61 - y30_35 - y8_44 - y19_44 - y21_63 - y4_10 - y33_46 - y12_23 - y41_59 - y44_46 - y4_19 - y44_55 - y52_59 - y10_62 - y33_64 - y25_60 - y22_36 - y34_38 - y1_13 - y22_45 - y34_56 - y3_50 - y26_42 - y7_38 - y26_51 - y8_12 - y6_60 - y11_26 - y0_35 - y21_67 - y41_45 - y25_37 - y60_67 - y4_14 - y25_46 - y22_40 - y37_38 - y34_51 - y3_45 - y3_54 - y37_56 - y7_15 - y18_24 - y36_60 - y7_33 - y18_42 - y29_39 - y11_12 - y19_25 - y21_44 - y40_57 - y33_36 - y41_49 - y44_45 - y10_52 - y44_54 - y33_63 - y44_63 - y22_35 - y34_37 - y3_31 - y14_31 - y22_44 - y43_67 - y3_49 - y15_23 - y15_32 - y26_32 - y28_51 - y7_28 - y36_64 - y28_60 - y5_67 - y8_11 - y0_7 - y6_41 - y29_43 - y0_16 - y11_16 - y6_59 - y21_57 - y10_29 - y2_25 - y2_34 - y44_49 - y10_56 - y25_54 - y3_26 - y32_62 - y22_39 - y13_58 - y3_35 - y14_35 - y13_67 - y3_44 - y15_18 - y36_50 - y28_46 - y59_61 - y5_62 - y0_2 - y29_38 - y48_51 - y6_45 - y6_54 - y21_52 - y10_15 - y10_24 - y25_31 - y54_67 - y10_51 - y32_48 - y51_61 - y43_66 - y1_60 - y28_32 - y36_45 - y55_58 - y28_41 - y36_54 - y9_37 - y17_50 - y28_50 - y9_46 - y9_55 - y5_66 - y6_40 - y6_49 - y10_28 - y54_62 - y25_35 - y12_65 - y32_43 - y3_16 - y43_52 - y3_25 - y32_61 - y35_57 - y16_53 - y1_64 - y17_36 - y28_36 - y36_49 - y28_45 - y5_52 - y17_54 - y9_50 - y5_61 - y58_64 - y21_24 - y6_35 - y21_33 - y39_50 - y2_10 - y31_46 - y31_55 - y54_57 - y23_51 - y20_64 - y31_64 - y24_34 - y4_65 - y1_41 - y32_56 - y13_52 - y13_61 - y57_67 - y36_44 - y17_40 - y28_40 - y9_36 - y5_47 - y5_56 - y6_21 - y58_59 - y42_51 - y21_28 - y27_62 - y42_60 - y39_45 - y2_5 - y2_14 - y62_65 - y2_23 - y20_59 - y31_59 - y23_55 - y13_20 - y54_61 - y12_64 - y32_42 - y16_43 - y16_61 - y17_26 - y57_62 - y36_39 - y49_58 - y28_35 - y38_67 - y6_7 - y58_63 - y21_23 - y50_59 - y30_53 - y39_40 - y0_67 - y4_37 - y12_50 - y23_50 - y4_46 - y1_31 - y4_64 - y1_40 - y1_49 - y5_10 - y5_19 - y38_53 - y46_66 - y9_26 - y5_37 - y27_43 - y27_61 - y0_44 - y11_44 - y0_53 - y2_4 - y4_23 - y20_40 - y23_36 - y20_49 - y31_49 - y12_45 - y4_41 - y12_54 - y53_55 - y16_24 - y34_60 - y1_35 - y45_60 - y1_44 - y37_65 - y16_42 - y5_23 - y9_21 - y26_55 - y5_32 - y49_57 - y26_64 - y27_29 - y7_60 - y27_38 - y0_30 - y19_43 - y0_39 - y11_39 - y8_52 - y42_54 - y27_65 - y11_48 - y19_61 - y11_57 - y12_22 - y0_66 - y23_31 - y52_67 - y20_44 - y12_40 - y23_40 - y23_49 - y1_12 - y13_14 - y53_59 - y4_54 - y1_30 - y34_64 - y45_64 - y56_64 - y37_60 - y26_41 - y38_52 - y19_29 - y27_42 - y0_34 - y19_47 - y42_49 - y0_52 - y0_61 - y11_61 - y41_62 - y31_39 - y33_67 - y1_7 - y53_54 - y16_23 - y3_53 - y14_53 - y22_66 - y18_32 - y7_41 - y18_41 - y15_54 - y49_56 - y7_50 - y15_63 - y19_24 - y27_37 - y8_33 - y40_65 - y63_67 - y19_42 - y30_42 - y0_38 - y41_48 - y20_25 - y4_8 - y33_53 - y12_30 - y25_49 - y44_62 - y2_65 - y25_67 - y3_39 - y37_41 - y34_63 - y56_63 - y3_57 - y14_57 - y26_31 - y18_27 - y37_49 - y15_40 - y7_36 - y8_10 - y26_58 - y7_54 - y48_55 - y27_32 - y0_15 - y8_28 - y30_37 - y6_67 - y0_42 - y41_43 - y33_48 - y44_48 - y25_44 - y10_55 - y2_51 - y10_64 - y22_29 - y33_66 - y1_6 - y25_62 - y22_38 - y3_43 - y45_58 - y14_52 - y15_26 - y55_62 - y18_22 - y59_60 - y26_35 - y26_44 - y18_40 - y0_1 - y8_14 - y40_46 - y19_23 - y11_19 - y6_62 - y41_47 - y25_30 - y25_39 - y44_52 - y52_65 - y10_59 - y25_57 - y3_20 - y2_64 - y3_38 - y14_47 - y3_56
 Subject to
C1: x0+x1-y0_1 <=1 
C2: x0+x2-y0_2 <=1 
C3: x0+x4-y0_4 <=1 
C4: x0+x5-y0_5 <=1 
C5: x0+x6 <=1 
C6: x0+x7-y0_7 <=1 
C7: x0+x9-y0_9 <=1 
C8: x0+x12 <=1 
C9: x0+x13 <=1 
C10: x0+x14-y0_14 <=1 
C11: x0+x15-y0_15 <=1 
C12: x0+x16-y0_16 <=1 
C13: x0+x19 <=1 
C14: x0+x20 <=1 
C15: x0+x21 <=1 
C16: x0+x23 <=1 
C17: x0+x24 <=1 
C18: x0+x25 <=1 
C19: x0+x28 <=1 
C20: x0+x30-y0_30 <=1 
C21: x0+x33 <=1 
C22: x0+x34-y0_34 <=1 
C23: x0+x35-y0_35 <=1 
C24: x0+x36-y0_36 <=1 
C25: x0+x37 <=1 
C26: x0+x38-y0_38 <=1 
C27: x0+x39-y0_39 <=1 
C28: x0+x40 <=1 
C29: x0+x41-y0_41 <=1 
C30: x0+x42-y0_42 <=1 
C31: x0+x44-y0_44 <=1 
C32: x0+x45 <=1 
C33: x0+x51-y0_51 <=1 
C34: x0+x52-y0_52 <=1 
C35: x0+x53-y0_53 <=1 
C36: x0+x55 <=1 
C37: x0+x56 <=1 
C38: x0+x57 <=1 
C39: x0+x58 <=1 
C40: x0+x61-y0_61 <=1 
C41: x0+x62 <=1 
C42: x0+x63 <=1 
C43: x0+x66-y0_66 <=1 
C44: x0+x67-y0_67 <=1 
C45: x1+x5 <=1 
C46: x1+x6-y1_6 <=1 
C47: x1+x7-y1_7 <=1 
C48: x1+x12-y1_12 <=1 
C49: x1+x13-y1_13 <=1 
C50: x1+x17 <=1 
C51: x1+x18 <=1 
C52: x1+x19 <=1 
C53: x1+x23-y1_23 <=1 
C54: x1+x24 <=1 
C55: x1+x27 <=1 
C56: x1+x28-y1_28 <=1 
C57: x1+x29-y1_29 <=1 
C58: x1+x30-y1_30 <=1 
C59: x1+x31-y1_31 <=1 
C60: x1+x32 <=1 
C61: x1+x33-y1_33 <=1 
C62: x1+x34-y1_34 <=1 
C63: x1+x35-y1_35 <=1 
C64: x1+x38-y1_38 <=1 
C65: x1+x39 <=1 
C66: x1+x40-y1_40 <=1 
C67: x1+x41-y1_41 <=1 
C68: x1+x42-y1_42 <=1 
C69: x1+x44-y1_44 <=1 
C70: x1+x46 <=1 
C71: x1+x47-y1_47 <=1 
C72: x1+x48 <=1 
C73: x1+x49-y1_49 <=1 
C74: x1+x51-y1_51 <=1 
C75: x1+x53 <=1 
C76: x1+x54 <=1 
C77: x1+x55 <=1 
C78: x1+x56-y1_56 <=1 
C79: x1+x60-y1_60 <=1 
C80: x1+x61 <=1 
C81: x1+x62-y1_62 <=1 
C82: x1+x64-y1_64 <=1 
C83: x2+x3 <=1 
C84: x2+x4-y2_4 <=1 
C85: x2+x5-y2_5 <=1 
C86: x2+x8 <=1 
C87: x2+x10-y2_10 <=1 
C88: x2+x12-y2_12 <=1 
C89: x2+x14-y2_14 <=1 
C90: x2+x16 <=1 
C91: x2+x17 <=1 
C92: x2+x20 <=1 
C93: x2+x21 <=1 
C94: x2+x22-y2_22 <=1 
C95: x2+x23-y2_23 <=1 
C96: x2+x25-y2_25 <=1 
C97: x2+x27 <=1 
C98: x2+x28 <=1 
C99: x2+x31-y2_31 <=1 
C100: x2+x33 <=1 
C101: x2+x34-y2_34 <=1 
C102: x2+x36 <=1 
C103: x2+x37 <=1 
C104: x2+x40-y2_40 <=1 
C105: x2+x41 <=1 
C106: x2+x42 <=1 
C107: x2+x43 <=1 
C108: x2+x45-y2_45 <=1 
C109: x2+x47 <=1 
C110: x2+x48 <=1 
C111: x2+x49 <=1 
C112: x2+x51-y2_51 <=1 
C113: x2+x52 <=1 
C114: x2+x54 <=1 
C115: x2+x55 <=1 
C116: x2+x56 <=1 
C117: x2+x59 <=1 
C118: x2+x61 <=1 
C119: x2+x63-y2_63 <=1 
C120: x2+x64-y2_64 <=1 
C121: x2+x65-y2_65 <=1 
C122: x2+x66 <=1 
C123: x3+x5-y3_5 <=1 
C124: x3+x7 <=1 
C125: x3+x8 <=1 
C126: x3+x10-y3_10 <=1 
C127: x3+x11 <=1 
C128: x3+x13 <=1 
C129: x3+x14 <=1 
C130: x3+x15 <=1 
C131: x3+x16-y3_16 <=1 
C132: x3+x18 <=1 
C133: x3+x20-y3_20 <=1 
C134: x3+x21 <=1 
C135: x3+x22 <=1 
C136: x3+x24 <=1 
C137: x3+x25-y3_25 <=1 
C138: x3+x26-y3_26 <=1 
C139: x3+x28-y3_28 <=1 
C140: x3+x31-y3_31 <=1 
C141: x3+x35-y3_35 <=1 
C142: x3+x38-y3_38 <=1 
C143: x3+x39-y3_39 <=1 
C144: x3+x43-y3_43 <=1 
C145: x3+x44-y3_44 <=1 
C146: x3+x45-y3_45 <=1 
C147: x3+x46 <=1 
C148: x3+x47 <=1 
C149: x3+x49-y3_49 <=1 
C150: x3+x50-y3_50 <=1 
C151: x3+x52 <=1 
C152: x3+x53-y3_53 <=1 
C153: x3+x54-y3_54 <=1 
C154: x3+x55-y3_55 <=1 
C155: x3+x56-y3_56 <=1 
C156: x3+x57-y3_57 <=1 
C157: x3+x61 <=1 
C158: x3+x63 <=1 
C159: x3+x64 <=1 
C160: x3+x65-y3_65 <=1 
C161: x4+x8-y4_8 <=1 
C162: x4+x10-y4_10 <=1 
C163: x4+x11 <=1 
C164: x4+x12 <=1 
C165: x4+x13 <=1 
C166: x4+x14-y4_14 <=1 
C167: x4+x15-y4_15 <=1 
C168: x4+x16 <=1 
C169: x4+x19-y4_19 <=1 
C170: x4+x21 <=1 
C171: x4+x22 <=1 
C172: x4+x23-y4_23 <=1 
C173: x4+x26 <=1 
C174: x4+x27 <=1 
C175: x4+x28 <=1 
C176: x4+x29-y4_29 <=1 
C177: x4+x30-y4_30 <=1 
C178: x4+x31 <=1 
C179: x4+x33-y4_33 <=1 
C180: x4+x34-y4_34 <=1 
C181: x4+x35 <=1 
C182: x4+x36 <=1 
C183: x4+x37-y4_37 <=1 
C184: x4+x38 <=1 
C185: x4+x39-y4_39 <=1 
C186: x4+x41-y4_41 <=1 
C187: x4+x43-y4_43 <=1 
C188: x4+x45 <=1 
C189: x4+x46-y4_46 <=1 
C190: x4+x47-y4_47 <=1 
C191: x4+x48-y4_48 <=1 
C192: x4+x49-y4_49 <=1 
C193: x4+x50 <=1 
C194: x4+x52 <=1 
C195: x4+x53 <=1 
C196: x4+x54-y4_54 <=1 
C197: x4+x55 <=1 
C198: x4+x56 <=1 
C199: x4+x58 <=1 
C200: x4+x60 <=1 
C201: x4+x61-y4_61 <=1 
C202: x4+x62-y4_62 <=1 
C203: x4+x63 <=1 
C204: x4+x64-y4_64 <=1 
C205: x4+x65-y4_65 <=1 
C206: x4+x66 <=1 
C207: x5+x6-y5_6 <=1 
C208: x5+x7 <=1 
C209: x5+x8 <=1 
C210: x5+x9 <=1 
C211: x5+x10-y5_10 <=1 
C212: x5+x11 <=1 
C213: x5+x12-y5_12 <=1 
C214: x5+x13 <=1 
C215: x5+x14 <=1 
C216: x5+x16-y5_16 <=1 
C217: x5+x19-y5_19 <=1 
C218: x5+x20 <=1 
C219: x5+x21-y5_21 <=1 
C220: x5+x22-y5_22 <=1 
C221: x5+x23-y5_23 <=1 
C222: x5+x26-y5_26 <=1 
C223: x5+x30-y5_30 <=1 
C224: x5+x31 <=1 
C225: x5+x32-y5_32 <=1 
C226: x5+x33 <=1 
C227: x5+x37-y5_37 <=1 
C228: x5+x39 <=1 
C229: x5+x40-y5_40 <=1 
C230: x5+x41 <=1 
C231: x5+x42 <=1 
C232: x5+x44 <=1 
C233: x5+x45 <=1 
C234: x5+x47-y5_47 <=1 
C235: x5+x49 <=1 
C236: x5+x50 <=1 
C237: x5+x52-y5_52 <=1 
C238: x5+x53 <=1 
C239: x5+x54-y5_54 <=1 
C240: x5+x55 <=1 
C241: x5+x56-y5_56 <=1 
C242: x5+x59 <=1 
C243: x5+x60 <=1 
C244: x5+x61-y5_61 <=1 
C245: x5+x62-y5_62 <=1 
C246: x5+x63 <=1 
C247: x5+x64 <=1 
C248: x5+x65 <=1 
C249: x5+x66-y5_66 <=1 
C250: x5+x67-y5_67 <=1 
C251: x6+x7-y6_7 <=1 
C252: x6+x8 <=1 
C253: x6+x10-y6_10 <=1 
C254: x6+x11 <=1 
C255: x6+x12 <=1 
C256: x6+x14 <=1 
C257: x6+x15-y6_15 <=1 
C258: x6+x20 <=1 
C259: x6+x21-y6_21 <=1 
C260: x6+x23 <=1 
C261: x6+x25 <=1 
C262: x6+x28 <=1 
C263: x6+x33 <=1 
C264: x6+x34-y6_34 <=1 
C265: x6+x35-y6_35 <=1 
C266: x6+x36 <=1 
C267: x6+x37 <=1 
C268: x6+x38-y6_38 <=1 
C269: x6+x40-y6_40 <=1 
C270: x6+x41-y6_41 <=1 
C271: x6+x42-y6_42 <=1 
C272: x6+x43-y6_43 <=1 
C273: x6+x45-y6_45 <=1 
C274: x6+x46 <=1 
C275: x6+x49-y6_49 <=1 
C276: x6+x51-y6_51 <=1 
C277: x6+x52 <=1 
C278: x6+x54-y6_54 <=1 
C279: x6+x56 <=1 
C280: x6+x59-y6_59 <=1 
C281: x6+x60-y6_60 <=1 
C282: x6+x62-y6_62 <=1 
C283: x6+x63 <=1 
C284: x6+x64 <=1 
C285: x6+x65-y6_65 <=1 
C286: x6+x66 <=1 
C287: x6+x67-y6_67 <=1 
C288: x7+x8 <=1 
C289: x7+x10 <=1 
C290: x7+x11 <=1 
C291: x7+x12-y7_12 <=1 
C292: x7+x13 <=1 
C293: x7+x14 <=1 
C294: x7+x15-y7_15 <=1 
C295: x7+x16 <=1 
C296: x7+x17 <=1 
C297: x7+x19 <=1 
C298: x7+x20 <=1 
C299: x7+x21-y7_21 <=1 
C300: x7+x22 <=1 
C301: x7+x25 <=1 
C302: x7+x26 <=1 
C303: x7+x28-y7_28 <=1 
C304: x7+x30 <=1 
C305: x7+x32 <=1 
C306: x7+x33-y7_33 <=1 
C307: x7+x34-y7_34 <=1 
C308: x7+x35 <=1 
C309: x7+x36-y7_36 <=1 
C310: x7+x37 <=1 
C311: x7+x38-y7_38 <=1 
C312: x7+x41-y7_41 <=1 
C313: x7+x42 <=1 
C314: x7+x44 <=1 
C315: x7+x46 <=1 
C316: x7+x50-y7_50 <=1 
C317: x7+x53-y7_53 <=1 
C318: x7+x54-y7_54 <=1 
C319: x7+x56 <=1 
C320: x7+x57-y7_57 <=1 
C321: x7+x58 <=1 
C322: x7+x59 <=1 
C323: x7+x60-y7_60 <=1 
C324: x7+x63 <=1 
C325: x7+x65 <=1 
C326: x7+x67-y7_67 <=1 
C327: x8+x10-y8_10 <=1 
C328: x8+x11-y8_11 <=1 
C329: x8+x12-y8_12 <=1 
C330: x8+x14-y8_14 <=1 
C331: x8+x16 <=1 
C332: x8+x17 <=1 
C333: x8+x22-y8_22 <=1 
C334: x8+x23 <=1 
C335: x8+x24 <=1 
C336: x8+x26 <=1 
C337: x8+x28-y8_28 <=1 
C338: x8+x32-y8_32 <=1 
C339: x8+x33-y8_33 <=1 
C340: x8+x34 <=1 
C341: x8+x36 <=1 
C342: x8+x44-y8_44 <=1 
C343: x8+x46-y8_46 <=1 
C344: x8+x52-y8_52 <=1 
C345: x8+x54-y8_54 <=1 
C346: x8+x59-y8_59 <=1 
C347: x8+x60-y8_60 <=1 
C348: x8+x65 <=1 
C349: x8+x66 <=1 
C350: x8+x67 <=1 
C351: x9+x11 <=1 
C352: x9+x12 <=1 
C353: x9+x13 <=1 
C354: x9+x14 <=1 
C355: x9+x15 <=1 
C356: x9+x16 <=1 
C357: x9+x19 <=1 
C358: x9+x20 <=1 
C359: x9+x21-y9_21 <=1 
C360: x9+x22 <=1 
C361: x9+x24 <=1 
C362: x9+x25-y9_25 <=1 
C363: x9+x26-y9_26 <=1 
C364: x9+x27 <=1 
C365: x9+x28 <=1 
C366: x9+x29 <=1 
C367: x9+x30 <=1 
C368: x9+x34-y9_34 <=1 
C369: x9+x35 <=1 
C370: x9+x36-y9_36 <=1 
C371: x9+x37-y9_37 <=1 
C372: x9+x40 <=1 
C373: x9+x41 <=1 
C374: x9+x43 <=1 
C375: x9+x44 <=1 
C376: x9+x46-y9_46 <=1 
C377: x9+x50-y9_50 <=1 
C378: x9+x51 <=1 
C379: x9+x52-y9_52 <=1 
C380: x9+x53-y9_53 <=1 
C381: x9+x54 <=1 
C382: x9+x55-y9_55 <=1 
C383: x9+x56 <=1 
C384: x9+x57-y9_57 <=1 
C385: x9+x58-y9_58 <=1 
C386: x9+x59 <=1 
C387: x9+x60 <=1 
C388: x9+x62-y9_62 <=1 
C389: x9+x63-y9_63 <=1 
C390: x9+x64 <=1 
C391: x9+x66-y9_66 <=1 
C392: x9+x67-y9_67 <=1 
C393: x10+x12-y10_12 <=1 
C394: x10+x14 <=1 
C395: x10+x15-y10_15 <=1 
C396: x10+x16-y10_16 <=1 
C397: x10+x17-y10_17 <=1 
C398: x10+x23 <=1 
C399: x10+x24-y10_24 <=1 
C400: x10+x25-y10_25 <=1 
C401: x10+x26 <=1 
C402: x10+x27-y10_27 <=1 
C403: x10+x28-y10_28 <=1 
C404: x10+x29-y10_29 <=1 
C405: x10+x30-y10_30 <=1 
C406: x10+x31 <=1 
C407: x10+x35-y10_35 <=1 
C408: x10+x38 <=1 
C409: x10+x39 <=1 
C410: x10+x40 <=1 
C411: x10+x48 <=1 
C412: x10+x51-y10_51 <=1 
C413: x10+x52-y10_52 <=1 
C414: x10+x53 <=1 
C415: x10+x54-y10_54 <=1 
C416: x10+x55-y10_55 <=1 
C417: x10+x56-y10_56 <=1 
C418: x10+x57 <=1 
C419: x10+x59-y10_59 <=1 
C420: x10+x60 <=1 
C421: x10+x62-y10_62 <=1 
C422: x10+x64-y10_64 <=1 
C423: x10+x65 <=1 
C424: x10+x66 <=1 
C425: x11+x12-y11_12 <=1 
C426: x11+x14-y11_14 <=1 
C427: x11+x16-y11_16 <=1 
C428: x11+x18-y11_18 <=1 
C429: x11+x19-y11_19 <=1 
C430: x11+x24 <=1 
C431: x11+x26-y11_26 <=1 
C432: x11+x28 <=1 
C433: x11+x29 <=1 
C434: x11+x30 <=1 
C435: x11+x31 <=1 
C436: x11+x39-y11_39 <=1 
C437: x11+x43 <=1 
C438: x11+x44-y11_44 <=1 
C439: x11+x45-y11_45 <=1 
C440: x11+x47 <=1 
C441: x11+x48-y11_48 <=1 
C442: x11+x50-y11_50 <=1 
C443: x11+x51-y11_51 <=1 
C444: x11+x57-y11_57 <=1 
C445: x11+x58 <=1 
C446: x11+x59 <=1 
C447: x11+x61-y11_61 <=1 
C448: x11+x62 <=1 
C449: x11+x63 <=1 
C450: x11+x64-y11_64 <=1 
C451: x11+x66 <=1 
C452: x12+x13 <=1 
C453: x12+x15-y12_15 <=1 
C454: x12+x17 <=1 
C455: x12+x19 <=1 
C456: x12+x20-y12_20 <=1 
C457: x12+x22-y12_22 <=1 
C458: x12+x23-y12_23 <=1 
C459: x12+x25-y12_25 <=1 
C460: x12+x27 <=1 
C461: x12+x28-y12_28 <=1 
C462: x12+x29 <=1 
C463: x12+x30-y12_30 <=1 
C464: x12+x32 <=1 
C465: x12+x33-y12_33 <=1 
C466: x12+x34-y12_34 <=1 
C467: x12+x35 <=1 
C468: x12+x36 <=1 
C469: x12+x40-y12_40 <=1 
C470: x12+x41 <=1 
C471: x12+x42 <=1 
C472: x12+x43-y12_43 <=1 
C473: x12+x45-y12_45 <=1 
C474: x12+x47-y12_47 <=1 
C475: x12+x50-y12_50 <=1 
C476: x12+x52-y12_52 <=1 
C477: x12+x54-y12_54 <=1 
C478: x12+x55 <=1 
C479: x12+x56-y12_56 <=1 
C480: x12+x58 <=1 
C481: x12+x59 <=1 
C482: x12+x62 <=1 
C483: x12+x63-y12_63 <=1 
C484: x12+x64-y12_64 <=1 
C485: x12+x65-y12_65 <=1 
C486: x12+x66 <=1 
C487: x13+x14-y13_14 <=1 
C488: x13+x17-y13_17 <=1 
C489: x13+x18 <=1 
C490: x13+x19 <=1 
C491: x13+x20-y13_20 <=1 
C492: x13+x21 <=1 
C493: x13+x22-y13_22 <=1 
C494: x13+x24 <=1 
C495: x13+x25 <=1 
C496: x13+x32 <=1 
C497: x13+x33 <=1 
C498: x13+x35 <=1 
C499: x13+x37 <=1 
C500: x13+x38 <=1 
C501: x13+x39 <=1 
C502: x13+x41-y13_41 <=1 
C503: x13+x43 <=1 
C504: x13+x44 <=1 
C505: x13+x45 <=1 
C506: x13+x46 <=1 
C507: x13+x47 <=1 
C508: x13+x50-y13_50 <=1 
C509: x13+x51-y13_51 <=1 
C510: x13+x52-y13_52 <=1 
C511: x13+x53 <=1 
C512: x13+x54 <=1 
C513: x13+x56 <=1 
C514: x13+x57 <=1 
C515: x13+x58-y13_58 <=1 
C516: x13+x59-y13_59 <=1 
C517: x13+x61-y13_61 <=1 
C518: x13+x62 <=1 
C519: x13+x63-y13_63 <=1 
C520: x13+x67-y13_67 <=1 
C521: x14+x15 <=1 
C522: x14+x16 <=1 
C523: x14+x18-y14_18 <=1 
C524: x14+x23 <=1 
C525: x14+x24 <=1 
C526: x14+x27 <=1 
C527: x14+x28-y14_28 <=1 
C528: x14+x31-y14_31 <=1 
C529: x14+x32-y14_32 <=1 
C530: x14+x33 <=1 
C531: x14+x34 <=1 
C532: x14+x35-y14_35 <=1 
C533: x14+x38 <=1 
C534: x14+x41 <=1 
C535: x14+x45 <=1 
C536: x14+x46 <=1 
C537: x14+x47-y14_47 <=1 
C538: x14+x50 <=1 
C539: x14+x52-y14_52 <=1 
C540: x14+x53-y14_53 <=1 
C541: x14+x55-y14_55 <=1 
C542: x14+x56 <=1 
C543: x14+x57-y14_57 <=1 
C544: x14+x63 <=1 
C545: x14+x64 <=1 
C546: x15+x18-y15_18 <=1 
C547: x15+x21-y15_21 <=1 
C548: x15+x22 <=1 
C549: x15+x23-y15_23 <=1 
C550: x15+x25 <=1 
C551: x15+x26-y15_26 <=1 
C552: x15+x28 <=1 
C553: x15+x31 <=1 
C554: x15+x32-y15_32 <=1 
C555: x15+x33 <=1 
C556: x15+x34 <=1 
C557: x15+x37 <=1 
C558: x15+x38 <=1 
C559: x15+x40-y15_40 <=1 
C560: x15+x42 <=1 
C561: x15+x43 <=1 
C562: x15+x44 <=1 
C563: x15+x46 <=1 
C564: x15+x47-y15_47 <=1 
C565: x15+x54-y15_54 <=1 
C566: x15+x55 <=1 
C567: x15+x56 <=1 
C568: x15+x61 <=1 
C569: x15+x62-y15_62 <=1 
C570: x15+x63-y15_63 <=1 
C571: x15+x64 <=1 
C572: x16+x17 <=1 
C573: x16+x18 <=1 
C574: x16+x21 <=1 
C575: x16+x22 <=1 
C576: x16+x23-y16_23 <=1 
C577: x16+x24-y16_24 <=1 
C578: x16+x25 <=1 
C579: x16+x27 <=1 
C580: x16+x29 <=1 
C581: x16+x31-y16_31 <=1 
C582: x16+x32-y16_32 <=1 
C583: x16+x33 <=1 
C584: x16+x35-y16_35 <=1 
C585: x16+x36-y16_36 <=1 
C586: x16+x37-y16_37 <=1 
C587: x16+x38 <=1 
C588: x16+x42-y16_42 <=1 
C589: x16+x43-y16_43 <=1 
C590: x16+x46 <=1 
C591: x16+x48 <=1 
C592: x16+x50 <=1 
C593: x16+x51 <=1 
C594: x16+x52 <=1 
C595: x16+x53-y16_53 <=1 
C596: x16+x54-y16_54 <=1 
C597: x16+x56-y16_56 <=1 
C598: x16+x57 <=1 
C599: x16+x59 <=1 
C600: x16+x60 <=1 
C601: x16+x61-y16_61 <=1 
C602: x16+x65-y16_65 <=1 
C603: x16+x66 <=1 
C604: x17+x18 <=1 
C605: x17+x19-y17_19 <=1 
C606: x17+x20 <=1 
C607: x17+x22 <=1 
C608: x17+x25 <=1 
C609: x17+x26-y17_26 <=1 
C610: x17+x29 <=1 
C611: x17+x30 <=1 
C612: x17+x31 <=1 
C613: x17+x33 <=1 
C614: x17+x34-y17_34 <=1 
C615: x17+x36-y17_36 <=1 
C616: x17+x37 <=1 
C617: x17+x38 <=1 
C618: x17+x39 <=1 
C619: x17+x40-y17_40 <=1 
C620: x17+x41 <=1 
C621: x17+x42-y17_42 <=1 
C622: x17+x43 <=1 
C623: x17+x44 <=1 
C624: x17+x46 <=1 
C625: x17+x47-y17_47 <=1 
C626: x17+x50-y17_50 <=1 
C627: x17+x52-y17_52 <=1 
C628: x17+x53 <=1 
C629: x17+x54-y17_54 <=1 
C630: x17+x55 <=1 
C631: x17+x56 <=1 
C632: x17+x57 <=1 
C633: x17+x62-y17_62 <=1 
C634: x17+x65 <=1 
C635: x17+x67 <=1 
C636: x18+x19 <=1 
C637: x18+x21 <=1 
C638: x18+x22-y18_22 <=1 
C639: x18+x24-y18_24 <=1 
C640: x18+x25-y18_25 <=1 
C641: x18+x26 <=1 
C642: x18+x27-y18_27 <=1 
C643: x18+x28 <=1 
C644: x18+x32-y18_32 <=1 
C645: x18+x35-y18_35 <=1 
C646: x18+x37 <=1 
C647: x18+x40-y18_40 <=1 
C648: x18+x41-y18_41 <=1 
C649: x18+x42-y18_42 <=1 
C650: x18+x43 <=1 
C651: x18+x44-y18_44 <=1 
C652: x18+x45 <=1 
C653: x18+x46 <=1 
C654: x18+x49 <=1 
C655: x18+x52 <=1 
C656: x18+x54 <=1 
C657: x18+x56 <=1 
C658: x18+x57 <=1 
C659: x18+x58-y18_58 <=1 
C660: x18+x59 <=1 
C661: x18+x61-y18_61 <=1 
C662: x18+x63 <=1 
C663: x18+x67-y18_67 <=1 
C664: x19+x20 <=1 
C665: x19+x21 <=1 
C666: x19+x22-y19_22 <=1 
C667: x19+x23-y19_23 <=1 
C668: x19+x24-y19_24 <=1 
C669: x19+x25-y19_25 <=1 
C670: x19+x27 <=1 
C671: x19+x29-y19_29 <=1 
C672: x19+x30 <=1 
C673: x19+x32-y19_32 <=1 
C674: x19+x34 <=1 
C675: x19+x39 <=1 
C676: x19+x41 <=1 
C677: x19+x42-y19_42 <=1 
C678: x19+x43-y19_43 <=1 
C679: x19+x44-y19_44 <=1 
C680: x19+x47-y19_47 <=1 
C681: x19+x52 <=1 
C682: x19+x56 <=1 
C683: x19+x58 <=1 
C684: x19+x61-y19_61 <=1 
C685: x19+x62 <=1 
C686: x19+x64-y19_64 <=1 
C687: x19+x65-y19_65 <=1 
C688: x20+x21 <=1 
C689: x20+x23 <=1 
C690: x20+x24 <=1 
C691: x20+x25-y20_25 <=1 
C692: x20+x26 <=1 
C693: x20+x27 <=1 
C694: x20+x28 <=1 
C695: x20+x31 <=1 
C696: x20+x32-y20_32 <=1 
C697: x20+x34 <=1 
C698: x20+x35 <=1 
C699: x20+x37 <=1 
C700: x20+x38-y20_38 <=1 
C701: x20+x40-y20_40 <=1 
C702: x20+x41 <=1 
C703: x20+x43 <=1 
C704: x20+x44-y20_44 <=1 
C705: x20+x48 <=1 
C706: x20+x49-y20_49 <=1 
C707: x20+x51-y20_51 <=1 
C708: x20+x52 <=1 
C709: x20+x53 <=1 
C710: x20+x55 <=1 
C711: x20+x56-y20_56 <=1 
C712: x20+x57-y20_57 <=1 
C713: x20+x59-y20_59 <=1 
C714: x20+x60 <=1 
C715: x20+x61 <=1 
C716: x20+x64-y20_64 <=1 
C717: x20+x65 <=1 
C718: x20+x66 <=1 
C719: x20+x67 <=1 
C720: x21+x23-y21_23 <=1 
C721: x21+x24-y21_24 <=1 
C722: x21+x27 <=1 
C723: x21+x28-y21_28 <=1 
C724: x21+x30 <=1 
C725: x21+x31-y21_31 <=1 
C726: x21+x33-y21_33 <=1 
C727: x21+x34 <=1 
C728: x21+x35-y21_35 <=1 
C729: x21+x36-y21_36 <=1 
C730: x21+x37-y21_37 <=1 
C731: x21+x38 <=1 
C732: x21+x41 <=1 
C733: x21+x42 <=1 
C734: x21+x43 <=1 
C735: x21+x44-y21_44 <=1 
C736: x21+x46 <=1 
C737: x21+x51 <=1 
C738: x21+x52-y21_52 <=1 
C739: x21+x57-y21_57 <=1 
C740: x21+x62 <=1 
C741: x21+x63-y21_63 <=1 
C742: x21+x64 <=1 
C743: x21+x65 <=1 
C744: x21+x66 <=1 
C745: x21+x67-y21_67 <=1 
C746: x22+x24 <=1 
C747: x22+x25 <=1 
C748: x22+x26 <=1 
C749: x22+x29-y22_29 <=1 
C750: x22+x32 <=1 
C751: x22+x35-y22_35 <=1 
C752: x22+x36-y22_36 <=1 
C753: x22+x38-y22_38 <=1 
C754: x22+x39-y22_39 <=1 
C755: x22+x40-y22_40 <=1 
C756: x22+x41-y22_41 <=1 
C757: x22+x44-y22_44 <=1 
C758: x22+x45-y22_45 <=1 
C759: x22+x46 <=1 
C760: x22+x47 <=1 
C761: x22+x48 <=1 
C762: x22+x49 <=1 
C763: x22+x50-y22_50 <=1 
C764: x22+x55 <=1 
C765: x22+x60 <=1 
C766: x22+x62 <=1 
C767: x22+x63 <=1 
C768: x22+x64 <=1 
C769: x22+x65 <=1 
C770: x22+x66-y22_66 <=1 
C771: x23+x25 <=1 
C772: x23+x26 <=1 
C773: x23+x28 <=1 
C774: x23+x29 <=1 
C775: x23+x30 <=1 
C776: x23+x31-y23_31 <=1 
C777: x23+x35 <=1 
C778: x23+x36-y23_36 <=1 
C779: x23+x39-y23_39 <=1 
C780: x23+x40-y23_40 <=1 
C781: x23+x41 <=1 
C782: x23+x43 <=1 
C783: x23+x45 <=1 
C784: x23+x46 <=1 
C785: x23+x47 <=1 
C786: x23+x49-y23_49 <=1 
C787: x23+x50-y23_50 <=1 
C788: x23+x51-y23_51 <=1 
C789: x23+x53 <=1 
C790: x23+x55-y23_55 <=1 
C791: x23+x57-y23_57 <=1 
C792: x23+x61 <=1 
C793: x23+x62-y23_62 <=1 
C794: x23+x65 <=1 
C795: x24+x28 <=1 
C796: x24+x32-y24_32 <=1 
C797: x24+x34-y24_34 <=1 
C798: x24+x35-y24_35 <=1 
C799: x24+x36-y24_36 <=1 
C800: x24+x37 <=1 
C801: x24+x39 <=1 
C802: x24+x40-y24_40 <=1 
C803: x24+x41-y24_41 <=1 
C804: x24+x42 <=1 
C805: x24+x47 <=1 
C806: x24+x48 <=1 
C807: x24+x50 <=1 
C808: x24+x54-y24_54 <=1 
C809: x24+x55-y24_55 <=1 
C810: x24+x56 <=1 
C811: x24+x57 <=1 
C812: x24+x59 <=1 
C813: x24+x60-y24_60 <=1 
C814: x24+x61 <=1 
C815: x24+x63 <=1 
C816: x24+x64-y24_64 <=1 
C817: x24+x66 <=1 
C818: x25+x26 <=1 
C819: x25+x28 <=1 
C820: x25+x29 <=1 
C821: x25+x30-y25_30 <=1 
C822: x25+x31-y25_31 <=1 
C823: x25+x33 <=1 
C824: x25+x35-y25_35 <=1 
C825: x25+x37-y25_37 <=1 
C826: x25+x39-y25_39 <=1 
C827: x25+x41 <=1 
C828: x25+x42 <=1 
C829: x25+x43 <=1 
C830: x25+x44-y25_44 <=1 
C831: x25+x45 <=1 
C832: x25+x46-y25_46 <=1 
C833: x25+x48 <=1 
C834: x25+x49-y25_49 <=1 
C835: x25+x50 <=1 
C836: x25+x51 <=1 
C837: x25+x52-y25_52 <=1 
C838: x25+x54-y25_54 <=1 
C839: x25+x55 <=1 
C840: x25+x56 <=1 
C841: x25+x57-y25_57 <=1 
C842: x25+x58 <=1 
C843: x25+x59 <=1 
C844: x25+x60-y25_60 <=1 
C845: x25+x62-y25_62 <=1 
C846: x25+x65-y25_65 <=1 
C847: x25+x66 <=1 
C848: x25+x67-y25_67 <=1 
C849: x26+x30 <=1 
C850: x26+x31-y26_31 <=1 
C851: x26+x32-y26_32 <=1 
C852: x26+x34 <=1 
C853: x26+x35-y26_35 <=1 
C854: x26+x36 <=1 
C855: x26+x37 <=1 
C856: x26+x38 <=1 
C857: x26+x39 <=1 
C858: x26+x41-y26_41 <=1 
C859: x26+x42-y26_42 <=1 
C860: x26+x44-y26_44 <=1 
C861: x26+x47 <=1 
C862: x26+x48 <=1 
C863: x26+x51-y26_51 <=1 
C864: x26+x52 <=1 
C865: x26+x53-y26_53 <=1 
C866: x26+x55-y26_55 <=1 
C867: x26+x57-y26_57 <=1 
C868: x26+x58-y26_58 <=1 
C869: x26+x60 <=1 
C870: x26+x61-y26_61 <=1 
C871: x26+x62-y26_62 <=1 
C872: x26+x64-y26_64 <=1 
C873: x26+x65 <=1 
C874: x26+x66 <=1 
C875: x27+x29-y27_29 <=1 
C876: x27+x31-y27_31 <=1 
C877: x27+x32-y27_32 <=1 
C878: x27+x36-y27_36 <=1 
C879: x27+x37-y27_37 <=1 
C880: x27+x38-y27_38 <=1 
C881: x27+x39 <=1 
C882: x27+x40 <=1 
C883: x27+x41-y27_41 <=1 
C884: x27+x42-y27_42 <=1 
C885: x27+x43-y27_43 <=1 
C886: x27+x44-y27_44 <=1 
C887: x27+x46 <=1 
C888: x27+x47 <=1 
C889: x27+x49 <=1 
C890: x27+x50 <=1 
C891: x27+x53 <=1 
C892: x27+x54-y27_54 <=1 
C893: x27+x55-y27_55 <=1 
C894: x27+x56 <=1 
C895: x27+x58 <=1 
C896: x27+x59 <=1 
C897: x27+x60 <=1 
C898: x27+x61-y27_61 <=1 
C899: x27+x62-y27_62 <=1 
C900: x27+x63 <=1 
C901: x27+x64-y27_64 <=1 
C902: x27+x65-y27_65 <=1 
C903: x27+x66 <=1 
C904: x28+x29-y28_29 <=1 
C905: x28+x32-y28_32 <=1 
C906: x28+x35-y28_35 <=1 
C907: x28+x36-y28_36 <=1 
C908: x28+x38-y28_38 <=1 
C909: x28+x40-y28_40 <=1 
C910: x28+x41-y28_41 <=1 
C911: x28+x45-y28_45 <=1 
C912: x28+x46-y28_46 <=1 
C913: x28+x49 <=1 
C914: x28+x50-y28_50 <=1 
C915: x28+x51-y28_51 <=1 
C916: x28+x52 <=1 
C917: x28+x53 <=1 
C918: x28+x54 <=1 
C919: x28+x57 <=1 
C920: x28+x58-y28_58 <=1 
C921: x28+x59 <=1 
C922: x28+x60-y28_60 <=1 
C923: x28+x62-y28_62 <=1 
C924: x29+x30 <=1 
C925: x29+x32-y29_32 <=1 
C926: x29+x37 <=1 
C927: x29+x38-y29_38 <=1 
C928: x29+x39-y29_39 <=1 
C929: x29+x43-y29_43 <=1 
C930: x29+x44-y29_44 <=1 
C931: x29+x45-y29_45 <=1 
C932: x29+x48 <=1 
C933: x29+x49 <=1 
C934: x29+x50 <=1 
C935: x29+x51 <=1 
C936: x29+x53 <=1 
C937: x29+x59-y29_59 <=1 
C938: x29+x64 <=1 
C939: x29+x65 <=1 
C940: x30+x35-y30_35 <=1 
C941: x30+x36-y30_36 <=1 
C942: x30+x37-y30_37 <=1 
C943: x30+x38 <=1 
C944: x30+x39 <=1 
C945: x30+x40 <=1 
C946: x30+x42-y30_42 <=1 
C947: x30+x43 <=1 
C948: x30+x44 <=1 
C949: x30+x45 <=1 
C950: x30+x47 <=1 
C951: x30+x50 <=1 
C952: x30+x51 <=1 
C953: x30+x53-y30_53 <=1 
C954: x30+x54-y30_54 <=1 
C955: x30+x55 <=1 
C956: x30+x56 <=1 
C957: x30+x59-y30_59 <=1 
C958: x30+x60 <=1 
C959: x30+x61 <=1 
C960: x30+x65 <=1 
C961: x30+x66 <=1 
C962: x30+x67 <=1 
C963: x31+x34 <=1 
C964: x31+x35 <=1 
C965: x31+x38-y31_38 <=1 
C966: x31+x39-y31_39 <=1 
C967: x31+x40 <=1 
C968: x31+x41 <=1 
C969: x31+x42-y31_42 <=1 
C970: x31+x43 <=1 
C971: x31+x46-y31_46 <=1 
C972: x31+x47 <=1 
C973: x31+x48-y31_48 <=1 
C974: x31+x49-y31_49 <=1 
C975: x31+x50 <=1 
C976: x31+x53 <=1 
C977: x31+x54 <=1 
C978: x31+x55-y31_55 <=1 
C979: x31+x56-y31_56 <=1 
C980: x31+x57-y31_57 <=1 
C981: x31+x59-y31_59 <=1 
C982: x31+x61-y31_61 <=1 
C983: x31+x64-y31_64 <=1 
C984: x31+x65-y31_65 <=1 
C985: x32+x35 <=1 
C986: x32+x36 <=1 
C987: x32+x37 <=1 
C988: x32+x38 <=1 
C989: x32+x39 <=1 
C990: x32+x42-y32_42 <=1 
C991: x32+x43-y32_43 <=1 
C992: x32+x46 <=1 
C993: x32+x48-y32_48 <=1 
C994: x32+x50 <=1 
C995: x32+x51 <=1 
C996: x32+x55 <=1 
C997: x32+x56-y32_56 <=1 
C998: x32+x57 <=1 
C999: x32+x59 <=1 
C1000: x32+x61-y32_61 <=1 
C1001: x32+x62-y32_62 <=1 
C1002: x32+x63 <=1 
C1003: x32+x64 <=1 
C1004: x32+x65 <=1 
C1005: x32+x66 <=1 
C1006: x33+x35 <=1 
C1007: x33+x36-y33_36 <=1 
C1008: x33+x38-y33_38 <=1 
C1009: x33+x41 <=1 
C1010: x33+x45 <=1 
C1011: x33+x46-y33_46 <=1 
C1012: x33+x47-y33_47 <=1 
C1013: x33+x48-y33_48 <=1 
C1014: x33+x52 <=1 
C1015: x33+x53-y33_53 <=1 
C1016: x33+x55 <=1 
C1017: x33+x57 <=1 
C1018: x33+x58 <=1 
C1019: x33+x59 <=1 
C1020: x33+x60 <=1 
C1021: x33+x61 <=1 
C1022: x33+x62 <=1 
C1023: x33+x63-y33_63 <=1 
C1024: x33+x64-y33_64 <=1 
C1025: x33+x65-y33_65 <=1 
C1026: x33+x66-y33_66 <=1 
C1027: x33+x67-y33_67 <=1 
C1028: x34+x37-y34_37 <=1 
C1029: x34+x38-y34_38 <=1 
C1030: x34+x39-y34_39 <=1 
C1031: x34+x41 <=1 
C1032: x34+x42 <=1 
C1033: x34+x45 <=1 
C1034: x34+x47 <=1 
C1035: x34+x48 <=1 
C1036: x34+x49 <=1 
C1037: x34+x51-y34_51 <=1 
C1038: x34+x53-y34_53 <=1 
C1039: x34+x54 <=1 
C1040: x34+x56-y34_56 <=1 
C1041: x34+x57 <=1 
C1042: x34+x58 <=1 
C1043: x34+x60-y34_60 <=1 
C1044: x34+x61 <=1 
C1045: x34+x62 <=1 
C1046: x34+x63-y34_63 <=1 
C1047: x34+x64-y34_64 <=1 
C1048: x34+x66 <=1 
C1049: x34+x67-y34_67 <=1 
C1050: x35+x36 <=1 
C1051: x35+x38 <=1 
C1052: x35+x39 <=1 
C1053: x35+x40-y35_40 <=1 
C1054: x35+x41-y35_41 <=1 
C1055: x35+x44 <=1 
C1056: x35+x46-y35_46 <=1 
C1057: x35+x49 <=1 
C1058: x35+x52 <=1 
C1059: x35+x54-y35_54 <=1 
C1060: x35+x56 <=1 
C1061: x35+x57-y35_57 <=1 
C1062: x35+x58-y35_58 <=1 
C1063: x35+x59 <=1 
C1064: x35+x60 <=1 
C1065: x35+x62 <=1 
C1066: x35+x64-y35_64 <=1 
C1067: x35+x66 <=1 
C1068: x35+x67 <=1 
C1069: x36+x37 <=1 
C1070: x36+x39-y36_39 <=1 
C1071: x36+x42 <=1 
C1072: x36+x44-y36_44 <=1 
C1073: x36+x45-y36_45 <=1 
C1074: x36+x46 <=1 
C1075: x36+x48 <=1 
C1076: x36+x49-y36_49 <=1 
C1077: x36+x50-y36_50 <=1 
C1078: x36+x51 <=1 
C1079: x36+x52 <=1 
C1080: x36+x54-y36_54 <=1 
C1081: x36+x56-y36_56 <=1 
C1082: x36+x60-y36_60 <=1 
C1083: x36+x63 <=1 
C1084: x36+x64-y36_64 <=1 
C1085: x36+x65-y36_65 <=1 
C1086: x36+x66 <=1 
C1087: x36+x67 <=1 
C1088: x37+x38-y37_38 <=1 
C1089: x37+x40 <=1 
C1090: x37+x41-y37_41 <=1 
C1091: x37+x42 <=1 
C1092: x37+x45 <=1 
C1093: x37+x48 <=1 
C1094: x37+x49-y37_49 <=1 
C1095: x37+x50 <=1 
C1096: x37+x51 <=1 
C1097: x37+x52 <=1 
C1098: x37+x55 <=1 
C1099: x37+x56-y37_56 <=1 
C1100: x37+x57 <=1 
C1101: x37+x59 <=1 
C1102: x37+x60-y37_60 <=1 
C1103: x37+x63-y37_63 <=1 
C1104: x37+x64 <=1 
C1105: x37+x65-y37_65 <=1 
C1106: x37+x67 <=1 
C1107: x38+x41 <=1 
C1108: x38+x48 <=1 
C1109: x38+x49 <=1 
C1110: x38+x51-y38_51 <=1 
C1111: x38+x52-y38_52 <=1 
C1112: x38+x53-y38_53 <=1 
C1113: x38+x58 <=1 
C1114: x38+x59-y38_59 <=1 
C1115: x38+x60-y38_60 <=1 
C1116: x38+x61 <=1 
C1117: x38+x65 <=1 
C1118: x38+x67-y38_67 <=1 
C1119: x39+x40-y39_40 <=1 
C1120: x39+x41-y39_41 <=1 
C1121: x39+x42 <=1 
C1122: x39+x43-y39_43 <=1 
C1123: x39+x44 <=1 
C1124: x39+x45-y39_45 <=1 
C1125: x39+x46-y39_46 <=1 
C1126: x39+x47 <=1 
C1127: x39+x48 <=1 
C1128: x39+x50-y39_50 <=1 
C1129: x39+x51 <=1 
C1130: x39+x52 <=1 
C1131: x39+x55 <=1 
C1132: x39+x57-y39_57 <=1 
C1133: x39+x58 <=1 
C1134: x39+x59 <=1 
C1135: x39+x63 <=1 
C1136: x39+x64 <=1 
C1137: x39+x65 <=1 
C1138: x40+x43 <=1 
C1139: x40+x46-y40_46 <=1 
C1140: x40+x52 <=1 
C1141: x40+x53 <=1 
C1142: x40+x54-y40_54 <=1 
C1143: x40+x56 <=1 
C1144: x40+x57-y40_57 <=1 
C1145: x40+x61 <=1 
C1146: x40+x62 <=1 
C1147: x40+x63-y40_63 <=1 
C1148: x40+x64 <=1 
C1149: x40+x65-y40_65 <=1 
C1150: x40+x67 <=1 
C1151: x41+x43-y41_43 <=1 
C1152: x41+x44 <=1 
C1153: x41+x45-y41_45 <=1 
C1154: x41+x47-y41_47 <=1 
C1155: x41+x48-y41_48 <=1 
C1156: x41+x49-y41_49 <=1 
C1157: x41+x51-y41_51 <=1 
C1158: x41+x52 <=1 
C1159: x41+x55-y41_55 <=1 
C1160: x41+x58 <=1 
C1161: x41+x59-y41_59 <=1 
C1162: x41+x60-y41_60 <=1 
C1163: x41+x62-y41_62 <=1 
C1164: x41+x67 <=1 
C1165: x42+x44 <=1 
C1166: x42+x48-y42_48 <=1 
C1167: x42+x49-y42_49 <=1 
C1168: x42+x51-y42_51 <=1 
C1169: x42+x52-y42_52 <=1 
C1170: x42+x53-y42_53 <=1 
C1171: x42+x54-y42_54 <=1 
C1172: x42+x55 <=1 
C1173: x42+x56-y42_56 <=1 
C1174: x42+x57-y42_57 <=1 
C1175: x42+x58-y42_58 <=1 
C1176: x42+x59 <=1 
C1177: x42+x60-y42_60 <=1 
C1178: x42+x62 <=1 
C1179: x42+x65 <=1 
C1180: x42+x66 <=1 
C1181: x42+x67-y42_67 <=1 
C1182: x43+x44-y43_44 <=1 
C1183: x43+x45 <=1 
C1184: x43+x47 <=1 
C1185: x43+x50 <=1 
C1186: x43+x52-y43_52 <=1 
C1187: x43+x58-y43_58 <=1 
C1188: x43+x61 <=1 
C1189: x43+x62 <=1 
C1190: x43+x63 <=1 
C1191: x43+x65 <=1 
C1192: x43+x66-y43_66 <=1 
C1193: x43+x67-y43_67 <=1 
C1194: x44+x45-y44_45 <=1 
C1195: x44+x46-y44_46 <=1 
C1196: x44+x48-y44_48 <=1 
C1197: x44+x49-y44_49 <=1 
C1198: x44+x51 <=1 
C1199: x44+x52-y44_52 <=1 
C1200: x44+x54-y44_54 <=1 
C1201: x44+x55-y44_55 <=1 
C1202: x44+x56 <=1 
C1203: x44+x57 <=1 
C1204: x44+x58 <=1 
C1205: x44+x59 <=1 
C1206: x44+x60 <=1 
C1207: x44+x62-y44_62 <=1 
C1208: x44+x63-y44_63 <=1 
C1209: x44+x65-y44_65 <=1 
C1210: x45+x46 <=1 
C1211: x45+x47 <=1 
C1212: x45+x48-y45_48 <=1 
C1213: x45+x49 <=1 
C1214: x45+x52-y45_52 <=1 
C1215: x45+x54 <=1 
C1216: x45+x55 <=1 
C1217: x45+x58-y45_58 <=1 
C1218: x45+x60-y45_60 <=1 
C1219: x45+x61 <=1 
C1220: x45+x62 <=1 
C1221: x45+x64-y45_64 <=1 
C1222: x45+x65 <=1 
C1223: x46+x47 <=1 
C1224: x46+x48 <=1 
C1225: x46+x50 <=1 
C1226: x46+x52 <=1 
C1227: x46+x55 <=1 
C1228: x46+x58-y46_58 <=1 
C1229: x46+x61 <=1 
C1230: x46+x62 <=1 
C1231: x46+x66-y46_66 <=1 
C1232: x46+x67 <=1 
C1233: x47+x48 <=1 
C1234: x47+x49 <=1 
C1235: x47+x53-y47_53 <=1 
C1236: x47+x54 <=1 
C1237: x47+x57 <=1 
C1238: x47+x58 <=1 
C1239: x47+x59 <=1 
C1240: x47+x60 <=1 
C1241: x47+x62-y47_62 <=1 
C1242: x47+x66 <=1 
C1243: x47+x67 <=1 
C1244: x48+x50 <=1 
C1245: x48+x51-y48_51 <=1 
C1246: x48+x54-y48_54 <=1 
C1247: x48+x55-y48_55 <=1 
C1248: x48+x57 <=1 
C1249: x48+x62 <=1 
C1250: x48+x63-y48_63 <=1 
C1251: x48+x64 <=1 
C1252: x48+x65 <=1 
C1253: x48+x67-y48_67 <=1 
C1254: x49+x50-y49_50 <=1 
C1255: x49+x51 <=1 
C1256: x49+x52 <=1 
C1257: x49+x53 <=1 
C1258: x49+x56-y49_56 <=1 
C1259: x49+x57-y49_57 <=1 
C1260: x49+x58-y49_58 <=1 
C1261: x49+x59-y49_59 <=1 
C1262: x49+x61 <=1 
C1263: x49+x63 <=1 
C1264: x49+x65 <=1 
C1265: x50+x51-y50_51 <=1 
C1266: x50+x52-y50_52 <=1 
C1267: x50+x54 <=1 
C1268: x50+x55 <=1 
C1269: x50+x57 <=1 
C1270: x50+x59-y50_59 <=1 
C1271: x50+x60 <=1 
C1272: x50+x63 <=1 
C1273: x50+x67 <=1 
C1274: x51+x52 <=1 
C1275: x51+x53-y51_53 <=1 
C1276: x51+x54 <=1 
C1277: x51+x55 <=1 
C1278: x51+x56 <=1 
C1279: x51+x61-y51_61 <=1 
C1280: x51+x64-y51_64 <=1 
C1281: x51+x65 <=1 
C1282: x51+x67 <=1 
C1283: x52+x54 <=1 
C1284: x52+x55-y52_55 <=1 
C1285: x52+x56 <=1 
C1286: x52+x58 <=1 
C1287: x52+x59-y52_59 <=1 
C1288: x52+x61 <=1 
C1289: x52+x62 <=1 
C1290: x52+x65-y52_65 <=1 
C1291: x52+x67-y52_67 <=1 
C1292: x53+x54-y53_54 <=1 
C1293: x53+x55-y53_55 <=1 
C1294: x53+x56-y53_56 <=1 
C1295: x53+x57-y53_57 <=1 
C1296: x53+x58 <=1 
C1297: x53+x59-y53_59 <=1 
C1298: x53+x60 <=1 
C1299: x53+x61-y53_61 <=1 
C1300: x53+x62 <=1 
C1301: x53+x63 <=1 
C1302: x53+x65 <=1 
C1303: x53+x66-y53_66 <=1 
C1304: x54+x55 <=1 
C1305: x54+x57-y54_57 <=1 
C1306: x54+x58 <=1 
C1307: x54+x60 <=1 
C1308: x54+x61-y54_61 <=1 
C1309: x54+x62-y54_62 <=1 
C1310: x54+x65 <=1 
C1311: x54+x67-y54_67 <=1 
C1312: x55+x58-y55_58 <=1 
C1313: x55+x60-y55_60 <=1 
C1314: x55+x62-y55_62 <=1 
C1315: x55+x63 <=1 
C1316: x55+x64 <=1 
C1317: x55+x67 <=1 
C1318: x56+x57 <=1 
C1319: x56+x58 <=1 
C1320: x56+x59 <=1 
C1321: x56+x60 <=1 
C1322: x56+x61 <=1 
C1323: x56+x63-y56_63 <=1 
C1324: x56+x64-y56_64 <=1 
C1325: x56+x65 <=1 
C1326: x56+x66 <=1 
C1327: x56+x67 <=1 
C1328: x57+x58-y57_58 <=1 
C1329: x57+x60-y57_60 <=1 
C1330: x57+x62-y57_62 <=1 
C1331: x57+x63-y57_63 <=1 
C1332: x57+x65 <=1 
C1333: x57+x66 <=1 
C1334: x57+x67-y57_67 <=1 
C1335: x58+x59-y58_59 <=1 
C1336: x58+x61-y58_61 <=1 
C1337: x58+x62 <=1 
C1338: x58+x63-y58_63 <=1 
C1339: x58+x64-y58_64 <=1 
C1340: x58+x65 <=1 
C1341: x58+x66-y58_66 <=1 
C1342: x59+x60-y59_60 <=1 
C1343: x59+x61-y59_61 <=1 
C1344: x59+x63-y59_63 <=1 
C1345: x59+x64 <=1 
C1346: x59+x65 <=1 
C1347: x59+x66 <=1 
C1348: x60+x64-y60_64 <=1 
C1349: x60+x65 <=1 
C1350: x60+x67-y60_67 <=1 
C1351: x61+x62-y61_62 <=1 
C1352: x61+x67-y61_67 <=1 
C1353: x62+x65-y62_65 <=1 
C1354: x62+x67 <=1 
C1355: x63+x65 <=1 
C1356: x63+x67-y63_67 <=1 
C1357: x64+x65-y64_65 <=1 
C1358: x64+x66-y64_66 <=1 
C1359: x65+x66 <=1 
C1360: x65+x67-y65_67 <=1 

binary
x0
x1
x2
x3
x4
x5
x6
x7
x8
x9
x10
x11
x12
x13
x14
x15
x16
x17
x18
x19
x20
x21
x22
x23
x24
x25
x26
x27
x28
x29
x30
x31
x32
x33
x34
x35
x36
x37
x38
x39
x40
x41
x42
x43
x44
x45
x46
x47
x48
x49
x50
x51
x52
x53
x54
x55
x56
x57
x58
x59
x60
x61
x62
x63
x64
x65
x66
x67
