problem_generation/data/GISP/train/er_n=68_m=1360_p=0.60_SET2_setparam=100.00_alpha=0.50_333.sol
objective value:                                 1179
x0                                                  1 	(obj:100)
x8                                                  1 	(obj:100)
x10                                                 1 	(obj:100)
x18                                                 1 	(obj:100)
x35                                                 1 	(obj:100)
x41                                                 1 	(obj:100)
x42                                                 1 	(obj:100)
x47                                                 1 	(obj:100)
x50                                                 1 	(obj:100)
x51                                                 1 	(obj:100)
x61                                                 1 	(obj:100)
x64                                                 1 	(obj:100)
y18_35                                              1 	(obj:-1)
y41_51                                              1 	(obj:-1)
y51_64                                              1 	(obj:-1)
y10_35                                              1 	(obj:-1)
y35_64                                              1 	(obj:-1)
y35_41                                              1 	(obj:-1)
y0_51                                               1 	(obj:-1)
y50_51                                              1 	(obj:-1)
y0_41                                               1 	(obj:-1)
y18_61                                              1 	(obj:-1)
y0_35                                               1 	(obj:-1)
y18_42                                              1 	(obj:-1)
y10_51                                              1 	(obj:-1)
y51_61                                              1 	(obj:-1)
y42_51                                              1 	(obj:-1)
y0_61                                               1 	(obj:-1)
y18_41                                              1 	(obj:-1)
y8_10                                               1 	(obj:-1)
y0_42                                               1 	(obj:-1)
y10_64                                              1 	(obj:-1)
y41_47                                              1 	(obj:-1)
